max-covering-SJC.lp
\ LP format - for model browsing. Use MPS format to capture full model detail.
Maximize
  y_0 + y_1 + y_2 + y_3 + y_4 + y_5 + y_6 + y_7 + y_8 + y_9 + y_10 + y_11
   + y_12 + y_13 + y_14 + y_15 + y_16 + y_17 + y_18 + y_19 + y_20 + y_21
   + y_22 + y_23 + y_24 + y_25 + y_26 + y_27 + y_28 + y_29 + y_30 + y_31
   + y_32 + y_33 + y_34 + y_35 + y_36 + y_37 + y_38 + y_39 + y_40 + y_41
   + y_42 + y_43 + y_44 + y_45 + y_46 + y_47 + y_48 + y_49 + y_50 + y_51
   + y_52 + y_53 + y_54 + y_55 + y_56 + y_57 + y_58 + y_59 + y_60 + y_61
   + y_62 + y_63 + y_64 + y_65 + y_66 + y_67 + y_68 + y_69 + y_70 + y_71
   + y_72 + y_73 + y_74 + y_75
Subject To
 R0: x_0 + x_1 + x_2 + x_3 + x_4 + x_5 + x_6 + x_7 + x_8 + x_9 + x_10
   + x_11 + x_12 + x_13 + x_14 + x_15 + x_16 + x_17 + x_18 + x_19 + x_20
   + x_21 + x_22 + x_23 + x_24 + x_25 + x_26 + x_27 + x_28 + x_29 + x_30
   + x_31 + x_32 + x_33 + x_34 + x_35 + x_36 + x_37 + x_38 + x_39 + x_40
   + x_41 + x_42 + x_43 + x_44 + x_45 + x_46 + x_47 + x_48 + x_49 + x_50
   + x_51 + x_52 + x_53 + x_54 + x_55 + x_56 + x_57 + x_58 + x_59 + x_60
   + x_61 + x_62 + x_63 + x_64 + x_65 + x_66 + x_67 + x_68 + x_69 + x_70
   + x_71 + x_72 + x_73 + x_74 + x_75 = 2
 R1: - y_0 + x_1 + x_2 + x_3 + x_4 + x_5 + x_6 + x_7 + x_9 + x_10 + x_11
   + x_12 + x_13 + x_14 + x_15 + x_16 + x_17 + x_18 + x_19 + x_20 + x_21
   + x_22 + x_23 + x_24 + x_37 + x_39 + x_40 + x_41 + x_42 + x_43 + x_44
   + x_45 + x_46 + x_47 + x_49 + x_50 + x_51 + x_52 + x_53 + x_54 + x_65
   + x_67 + x_69 + x_72 + x_73 + x_75 >= 0
 R2: x_0 - y_1 + x_2 + x_3 + x_4 + x_5 + x_6 + x_7 + x_9 + x_10 + x_11
   + x_12 + x_13 + x_14 + x_15 + x_16 + x_17 + x_18 + x_19 + x_20 + x_21
   + x_22 + x_23 + x_24 + x_37 + x_39 + x_40 + x_41 + x_42 + x_43 + x_44
   + x_45 + x_46 + x_47 + x_49 + x_50 + x_51 + x_52 + x_53 + x_54 + x_65
   + x_66 + x_67 + x_69 + x_72 + x_73 + x_75 >= 0
 R3: x_0 + x_1 - y_2 + x_3 + x_4 + x_5 + x_6 + x_7 + x_9 + x_10 + x_11
   + x_12 + x_13 + x_14 + x_15 + x_16 + x_17 + x_18 + x_19 + x_20 + x_21
   + x_22 + x_23 + x_24 + x_32 + x_34 + x_37 + x_39 + x_40 + x_41 + x_42
   + x_43 + x_44 + x_45 + x_46 + x_47 + x_49 + x_50 + x_52 + x_53 + x_54
   + x_65 + x_67 + x_69 + x_72 + x_73 + x_75 >= 0
 R4: x_0 + x_1 + x_2 - y_3 + x_4 + x_5 + x_6 + x_7 + x_9 + x_10 + x_11
   + x_12 + x_13 + x_14 + x_15 + x_16 + x_17 + x_18 + x_19 + x_20 + x_21
   + x_22 + x_23 + x_24 + x_32 + x_34 + x_37 + x_39 + x_40 + x_41 + x_42
   + x_43 + x_44 + x_45 + x_46 + x_47 + x_49 + x_50 + x_51 + x_52 + x_53
   + x_54 + x_55 + x_65 + x_66 + x_67 + x_69 + x_71 + x_72 + x_73 + x_75
   >= 0
 R5: x_0 + x_1 + x_2 + x_3 - y_4 + x_5 + x_6 + x_7 + x_9 + x_10 + x_11
   + x_12 + x_13 + x_14 + x_15 + x_16 + x_17 + x_18 + x_19 + x_20 + x_21
   + x_22 + x_23 + x_24 + x_32 + x_34 + x_37 + x_39 + x_40 + x_41 + x_42
   + x_43 + x_44 + x_45 + x_46 + x_47 + x_49 + x_50 + x_51 + x_52 + x_53
   + x_54 + x_55 + x_65 + x_66 + x_67 + x_69 + x_71 + x_72 + x_73 + x_75
   >= 0
 R6: x_0 + x_1 + x_2 + x_3 + x_4 - y_5 + x_6 + x_7 + x_9 + x_10 + x_11
   + x_12 + x_13 + x_14 + x_15 + x_16 + x_17 + x_18 + x_19 + x_20 + x_21
   + x_22 + x_23 + x_24 + x_32 + x_34 + x_37 + x_39 + x_40 + x_41 + x_42
   + x_43 + x_44 + x_45 + x_46 + x_47 + x_49 + x_50 + x_52 + x_53 + x_54
   + x_55 + x_65 + x_66 + x_67 + x_69 + x_72 + x_73 + x_75 >= 0
 R7: x_0 + x_1 + x_2 + x_3 + x_4 + x_5 - y_6 + x_7 + x_9 + x_10 + x_11
   + x_12 + x_13 + x_14 + x_15 + x_16 + x_17 + x_18 + x_19 + x_20 + x_21
   + x_22 + x_23 + x_24 + x_32 + x_33 + x_34 + x_35 + x_37 + x_39 + x_40
   + x_41 + x_42 + x_43 + x_44 + x_45 + x_46 + x_47 + x_49 + x_50 + x_52
   + x_53 + x_54 + x_55 + x_56 + x_65 + x_66 + x_67 + x_69 + x_71 + x_72
   + x_73 + x_75 >= 0
 R8: x_0 + x_1 + x_2 + x_3 + x_4 + x_5 + x_6 - y_7 + x_9 + x_10 + x_11
   + x_12 + x_13 + x_14 + x_15 + x_16 + x_17 + x_18 + x_19 + x_20 + x_21
   + x_22 + x_23 + x_24 + x_28 + x_32 + x_33 + x_34 + x_35 + x_36 + x_37
   + x_39 + x_41 + x_42 + x_43 + x_44 + x_45 + x_46 + x_47 + x_49 + x_50
   + x_52 + x_53 + x_54 + x_55 + x_56 + x_65 + x_66 + x_67 + x_69 + x_71
   + x_72 + x_73 + x_75 >= 0
 R9: - y_8 + x_23 + x_24 + x_25 + x_26 + x_27 + x_28 + x_29 + x_30 + x_32
   + x_33 + x_34 + x_35 + x_36 + x_37 + x_38 >= 0
 R10: x_0 + x_1 + x_2 + x_3 + x_4 + x_5 + x_6 + x_7 - y_9 + x_10 + x_11
   + x_12 + x_13 + x_14 + x_15 + x_16 + x_17 + x_18 + x_19 + x_20 + x_21
   + x_22 + x_23 + x_24 + x_31 + x_32 + x_34 + x_37 + x_39 + x_40 + x_41
   + x_42 + x_43 + x_44 + x_45 + x_46 + x_47 + x_49 + x_50 + x_51 + x_52
   + x_53 + x_54 + x_55 + x_56 + x_65 + x_66 + x_67 + x_69 + x_70 + x_71
   + x_72 + x_73 + x_75 >= 0
 R11: x_0 + x_1 + x_2 + x_3 + x_4 + x_5 + x_6 + x_7 + x_9 - y_10 + x_11
   + x_12 + x_13 + x_14 + x_15 + x_16 + x_17 + x_18 + x_19 + x_20 + x_21
   + x_22 + x_23 + x_24 + x_31 + x_37 + x_39 + x_40 + x_41 + x_42 + x_43
   + x_44 + x_45 + x_46 + x_47 + x_49 + x_50 + x_51 + x_52 + x_53 + x_54
   + x_55 + x_56 + x_65 + x_66 + x_67 + x_69 + x_70 + x_71 + x_72 + x_73
   + x_75 >= 0
 R12: x_0 + x_1 + x_2 + x_3 + x_4 + x_5 + x_6 + x_7 + x_9 + x_10 - y_11
   + x_12 + x_13 + x_14 + x_15 + x_16 + x_17 + x_18 + x_19 + x_20 + x_21
   + x_22 + x_23 + x_24 + x_32 + x_34 + x_35 + x_37 + x_39 + x_40 + x_41
   + x_42 + x_43 + x_44 + x_45 + x_46 + x_47 + x_49 + x_50 + x_52 + x_53
   + x_54 + x_55 + x_56 + x_65 + x_66 + x_67 + x_69 + x_70 + x_71 + x_72
   + x_73 + x_75 >= 0
 R13: x_0 + x_1 + x_2 + x_3 + x_4 + x_5 + x_6 + x_7 + x_9 + x_10 + x_11
   - y_12 + x_13 + x_14 + x_15 + x_16 + x_17 + x_18 + x_19 + x_20 + x_21
   + x_22 + x_23 + x_24 + x_31 + x_37 + x_39 + x_40 + x_41 + x_42 + x_43
   + x_44 + x_45 + x_46 + x_47 + x_49 + x_50 + x_51 + x_52 + x_53 + x_54
   + x_55 + x_65 + x_66 + x_67 + x_69 + x_70 + x_71 + x_72 + x_73 + x_75
   >= 0
 R14: x_0 + x_1 + x_2 + x_3 + x_4 + x_5 + x_6 + x_7 + x_9 + x_10 + x_11
   + x_12 - y_13 + x_14 + x_15 + x_16 + x_17 + x_18 + x_19 + x_20 + x_21
   + x_22 + x_23 + x_24 + x_31 + x_37 + x_39 + x_40 + x_41 + x_42 + x_43
   + x_44 + x_45 + x_46 + x_47 + x_49 + x_50 + x_51 + x_52 + x_53 + x_54
   + x_55 + x_65 + x_66 + x_67 + x_69 + x_70 + x_71 + x_72 + x_73 + x_75
   >= 0
 R15: x_0 + x_1 + x_2 + x_3 + x_4 + x_5 + x_6 + x_7 + x_9 + x_10 + x_11
   + x_12 + x_13 - y_14 + x_15 + x_16 + x_17 + x_18 + x_19 + x_20 + x_21
   + x_22 + x_23 + x_24 + x_31 + x_37 + x_39 + x_40 + x_41 + x_42 + x_43
   + x_44 + x_45 + x_46 + x_47 + x_49 + x_50 + x_51 + x_52 + x_53 + x_54
   + x_55 + x_65 + x_66 + x_67 + x_69 + x_70 + x_71 + x_72 + x_73 + x_75
   >= 0
 R16: x_0 + x_1 + x_2 + x_3 + x_4 + x_5 + x_6 + x_7 + x_9 + x_10 + x_11
   + x_12 + x_13 + x_14 - y_15 + x_16 + x_17 + x_18 + x_19 + x_20 + x_21
   + x_22 + x_23 + x_24 + x_31 + x_37 + x_39 + x_41 + x_42 + x_43 + x_44
   + x_45 + x_46 + x_47 + x_49 + x_50 + x_51 + x_52 + x_53 + x_54 + x_55
   + x_59 + x_65 + x_66 + x_67 + x_69 + x_70 + x_71 + x_72 + x_73 + x_75
   >= 0
 R17: x_0 + x_1 + x_2 + x_3 + x_4 + x_5 + x_6 + x_7 + x_9 + x_10 + x_11
   + x_12 + x_13 + x_14 + x_15 - y_16 + x_17 + x_18 + x_19 + x_20 + x_21
   + x_22 + x_23 + x_24 + x_31 + x_37 + x_41 + x_42 + x_43 + x_44 + x_45
   + x_46 + x_47 + x_48 + x_49 + x_50 + x_51 + x_52 + x_53 + x_54 + x_55
   + x_58 + x_59 + x_60 + x_61 + x_65 + x_66 + x_67 + x_69 + x_70 + x_71
   + x_72 + x_73 + x_74 + x_75 >= 0
 R18: x_0 + x_1 + x_2 + x_3 + x_4 + x_5 + x_6 + x_7 + x_9 + x_10 + x_11
   + x_12 + x_13 + x_14 + x_15 + x_16 - y_17 + x_18 + x_19 + x_20 + x_21
   + x_22 + x_23 + x_24 + x_31 + x_37 + x_39 + x_40 + x_41 + x_42 + x_43
   + x_44 + x_45 + x_46 + x_47 + x_49 + x_50 + x_51 + x_52 + x_53 + x_54
   + x_55 + x_59 + x_65 + x_66 + x_67 + x_69 + x_70 + x_71 + x_72 + x_73
   + x_74 + x_75 >= 0
 R19: x_0 + x_1 + x_2 + x_3 + x_4 + x_5 + x_6 + x_7 + x_9 + x_10 + x_11
   + x_12 + x_13 + x_14 + x_15 + x_16 + x_17 - y_18 + x_19 + x_20 + x_21
   + x_22 + x_23 + x_24 + x_31 + x_39 + x_40 + x_41 + x_42 + x_43 + x_44
   + x_45 + x_46 + x_47 + x_49 + x_50 + x_51 + x_52 + x_53 + x_54 + x_65
   + x_66 + x_67 + x_69 + x_70 + x_71 + x_72 + x_73 + x_75 >= 0
 R20: x_0 + x_1 + x_2 + x_3 + x_4 + x_5 + x_6 + x_7 + x_9 + x_10 + x_11
   + x_12 + x_13 + x_14 + x_15 + x_16 + x_17 + x_18 - y_19 + x_20 + x_21
   + x_22 + x_23 + x_24 + x_31 + x_39 + x_40 + x_41 + x_42 + x_43 + x_44
   + x_45 + x_46 + x_47 + x_48 + x_49 + x_50 + x_51 + x_52 + x_53 + x_54
   + x_55 + x_65 + x_66 + x_67 + x_69 + x_70 + x_71 + x_72 + x_73 + x_74
   + x_75 >= 0
 R21: x_0 + x_1 + x_2 + x_3 + x_4 + x_5 + x_6 + x_7 + x_9 + x_10 + x_11
   + x_12 + x_13 + x_14 + x_15 + x_16 + x_17 + x_18 + x_19 - y_20 + x_21
   + x_22 + x_23 + x_24 + x_31 + x_39 + x_40 + x_41 + x_42 + x_43 + x_44
   + x_45 + x_46 + x_47 + x_48 + x_49 + x_50 + x_51 + x_52 + x_53 + x_54
   + x_55 + x_59 + x_65 + x_66 + x_67 + x_69 + x_70 + x_71 + x_72 + x_73
   + x_74 + x_75 >= 0
 R22: x_0 + x_1 + x_2 + x_3 + x_4 + x_5 + x_6 + x_7 + x_9 + x_10 + x_11
   + x_12 + x_13 + x_14 + x_15 + x_16 + x_17 + x_18 + x_19 + x_20 - y_21
   + x_22 + x_23 + x_24 + x_31 + x_39 + x_40 + x_41 + x_42 + x_43 + x_44
   + x_45 + x_46 + x_47 + x_48 + x_49 + x_50 + x_51 + x_52 + x_53 + x_54
   + x_55 + x_59 + x_65 + x_66 + x_67 + x_69 + x_70 + x_71 + x_72 + x_73
   + x_74 + x_75 >= 0
 R23: x_0 + x_1 + x_2 + x_3 + x_4 + x_5 + x_6 + x_7 + x_9 + x_10 + x_11
   + x_12 + x_13 + x_14 + x_15 + x_16 + x_17 + x_18 + x_19 + x_20 + x_21
   - y_22 + x_23 + x_24 + x_27 + x_28 + x_32 + x_33 + x_34 + x_35 + x_36
   + x_37 + x_39 + x_40 + x_41 + x_42 + x_43 + x_44 + x_45 + x_46 + x_49
   + x_50 + x_52 + x_53 + x_54 + x_55 + x_56 + x_65 + x_67 + x_69 + x_75
   >= 0
 R24: x_0 + x_1 + x_2 + x_3 + x_4 + x_5 + x_6 + x_7 + x_8 + x_9 + x_10
   + x_11 + x_12 + x_13 + x_14 + x_15 + x_16 + x_17 + x_18 + x_19 + x_20
   + x_21 + x_22 - y_23 + x_24 + x_27 + x_28 + x_29 + x_30 + x_32 + x_33
   + x_34 + x_35 + x_36 + x_37 + x_38 + x_41 + x_42 + x_43 + x_44 + x_45
   + x_46 + x_49 + x_50 + x_52 + x_53 + x_54 + x_55 + x_56 + x_65 + x_67
   + x_75 >= 0
 R25: x_0 + x_1 + x_2 + x_3 + x_4 + x_5 + x_6 + x_7 + x_8 + x_9 + x_10
   + x_11 + x_12 + x_13 + x_14 + x_15 + x_16 + x_17 + x_18 + x_19 + x_20
   + x_21 + x_22 + x_23 - y_24 + x_25 + x_27 + x_28 + x_29 + x_30 + x_32
   + x_33 + x_34 + x_35 + x_36 + x_37 + x_38 + x_41 + x_42 + x_43 + x_44
   + x_45 + x_50 + x_52 + x_53 + x_54 + x_55 + x_67 + x_75 >= 0
 R26: x_8 + x_24 - y_25 + x_26 + x_27 + x_28 + x_29 + x_30 + x_32 + x_33
   + x_34 + x_37 >= 0
 R27: x_8 + x_25 - y_26 + x_27 + x_28 + x_29 + x_30 + x_32 + x_33 + x_34
   >= 0
 R28: x_8 + x_22 + x_23 + x_24 + x_25 + x_26 - y_27 + x_28 + x_29 + x_30
   + x_32 + x_33 + x_34 + x_35 + x_36 + x_37 + x_38 + x_52 >= 0
 R29: x_7 + x_8 + x_22 + x_23 + x_24 + x_25 + x_26 + x_27 - y_28 + x_29
   + x_30 + x_32 + x_33 + x_34 + x_35 + x_36 + x_37 + x_38 + x_52 + x_53
   + x_54 + x_56 >= 0
 R30: x_8 + x_23 + x_24 + x_25 + x_26 + x_27 + x_28 - y_29 + x_30 + x_32
   + x_33 + x_34 + x_35 + x_36 + x_37 + x_38 + x_56 >= 0
 R31: x_8 + x_23 + x_24 + x_25 + x_26 + x_27 + x_28 + x_29 - y_30 + x_32
   + x_33 + x_34 + x_35 + x_36 + x_37 + x_38 + x_52 + x_53 + x_54 + x_55
   + x_56 + x_57 >= 0
 R32: x_9 + x_10 + x_12 + x_13 + x_14 + x_15 + x_16 + x_17 + x_18 + x_19
   + x_20 + x_21 - y_31 + x_46 + x_47 + x_48 + x_49 + x_50 + x_51 + x_58
   + x_59 + x_60 + x_61 + x_62 + x_63 + x_64 + x_65 + x_66 + x_67 + x_68
   + x_69 + x_70 + x_71 + x_72 + x_73 + x_74 + x_75 >= 0
 R33: x_2 + x_3 + x_4 + x_5 + x_6 + x_7 + x_8 + x_9 + x_11 + x_22 + x_23
   + x_24 + x_25 + x_26 + x_27 + x_28 + x_29 + x_30 - y_32 + x_33 + x_34
   + x_35 + x_36 + x_37 + x_38 + x_52 + x_53 + x_54 >= 0
 R34: x_6 + x_7 + x_8 + x_22 + x_23 + x_24 + x_25 + x_26 + x_27 + x_28
   + x_29 + x_30 + x_32 - y_33 + x_34 + x_35 + x_36 + x_37 + x_38 + x_52
   + x_53 + x_54 >= 0
 R35: x_2 + x_3 + x_4 + x_5 + x_6 + x_7 + x_8 + x_9 + x_11 + x_22 + x_23
   + x_24 + x_25 + x_26 + x_27 + x_28 + x_29 + x_30 + x_32 + x_33 - y_34
   + x_35 + x_36 + x_37 + x_38 + x_52 + x_53 + x_54 + x_55 + x_56 >= 0
 R36: x_6 + x_7 + x_8 + x_11 + x_22 + x_23 + x_24 + x_27 + x_28 + x_29
   + x_30 + x_32 + x_33 + x_34 - y_35 + x_36 + x_37 + x_38 + x_52 + x_53
   + x_54 + x_55 + x_56 + x_57 >= 0
 R37: x_7 + x_8 + x_22 + x_23 + x_24 + x_27 + x_28 + x_29 + x_30 + x_32
   + x_33 + x_34 + x_35 - y_36 + x_37 + x_38 + x_52 + x_53 + x_54 + x_55
   + x_56 + x_57 >= 0
 R38: x_0 + x_1 + x_2 + x_3 + x_4 + x_5 + x_6 + x_7 + x_8 + x_9 + x_10
   + x_11 + x_12 + x_13 + x_14 + x_15 + x_16 + x_17 + x_22 + x_23 + x_24
   + x_25 + x_27 + x_28 + x_29 + x_30 + x_32 + x_33 + x_34 + x_35 + x_36
   - y_37 + x_38 + x_45 + x_46 + x_50 + x_52 + x_53 + x_54 + x_55 + x_56
   + x_57 + x_67 + x_75 >= 0
 R39: x_8 + x_23 + x_24 + x_27 + x_28 + x_29 + x_30 + x_32 + x_33 + x_34
   + x_35 + x_36 + x_37 - y_38 + x_52 + x_53 + x_54 + x_55 + x_56 + x_57
   >= 0
 R40: x_0 + x_1 + x_2 + x_3 + x_4 + x_5 + x_6 + x_7 + x_9 + x_10 + x_11
   + x_12 + x_13 + x_14 + x_15 + x_17 + x_18 + x_19 + x_20 + x_21 + x_22
   - y_39 + x_40 + x_41 + x_42 + x_43 + x_44 + x_45 + x_49 >= 0
 R41: x_0 + x_1 + x_2 + x_3 + x_4 + x_5 + x_6 + x_9 + x_10 + x_11 + x_12
   + x_13 + x_14 + x_17 + x_18 + x_19 + x_20 + x_21 + x_22 + x_39 - y_40
   + x_41 + x_42 + x_43 + x_44 + x_45 >= 0
 R42: x_0 + x_1 + x_2 + x_3 + x_4 + x_5 + x_6 + x_7 + x_9 + x_10 + x_11
   + x_12 + x_13 + x_14 + x_15 + x_16 + x_17 + x_18 + x_19 + x_20 + x_21
   + x_22 + x_23 + x_24 + x_39 + x_40 - y_41 + x_42 + x_43 + x_44 + x_45
   + x_49 + x_50 + x_51 + x_52 + x_53 + x_67 + x_75 >= 0
 R43: x_0 + x_1 + x_2 + x_3 + x_4 + x_5 + x_6 + x_7 + x_9 + x_10 + x_11
   + x_12 + x_13 + x_14 + x_15 + x_16 + x_17 + x_18 + x_19 + x_20 + x_21
   + x_22 + x_23 + x_24 + x_39 + x_40 + x_41 - y_42 + x_43 + x_44 + x_45
   + x_49 + x_50 + x_51 + x_52 + x_53 + x_67 + x_75 >= 0
 R44: x_0 + x_1 + x_2 + x_3 + x_4 + x_5 + x_6 + x_7 + x_9 + x_10 + x_11
   + x_12 + x_13 + x_14 + x_15 + x_16 + x_17 + x_18 + x_19 + x_20 + x_21
   + x_22 + x_23 + x_24 + x_39 + x_40 + x_41 + x_42 - y_43 + x_44 + x_45
   + x_47 + x_49 + x_50 + x_51 + x_52 + x_53 + x_67 + x_75 >= 0
 R45: x_0 + x_1 + x_2 + x_3 + x_4 + x_5 + x_6 + x_7 + x_9 + x_10 + x_11
   + x_12 + x_13 + x_14 + x_15 + x_16 + x_17 + x_18 + x_19 + x_20 + x_21
   + x_22 + x_23 + x_24 + x_39 + x_40 + x_41 + x_42 + x_43 - y_44 + x_45
   + x_47 + x_49 + x_50 + x_51 + x_52 + x_53 + x_67 + x_75 >= 0
 R46: x_0 + x_1 + x_2 + x_3 + x_4 + x_5 + x_6 + x_7 + x_9 + x_10 + x_11
   + x_12 + x_13 + x_14 + x_15 + x_16 + x_17 + x_18 + x_19 + x_20 + x_21
   + x_22 + x_23 + x_24 + x_37 + x_39 + x_40 + x_41 + x_42 + x_43 + x_44
   - y_45 + x_47 + x_49 + x_50 + x_51 + x_52 + x_53 + x_54 + x_67 + x_72
   + x_75 >= 0
 R47: x_0 + x_1 + x_2 + x_3 + x_4 + x_5 + x_6 + x_7 + x_9 + x_10 + x_11
   + x_12 + x_13 + x_14 + x_15 + x_16 + x_17 + x_18 + x_19 + x_20 + x_21
   + x_22 + x_23 + x_31 + x_37 - y_46 + x_47 + x_48 + x_49 + x_50 + x_52
   + x_53 + x_54 + x_55 + x_56 + x_57 + x_58 + x_59 + x_60 + x_61 + x_62
   + x_63 + x_64 + x_65 + x_66 + x_67 + x_69 + x_70 + x_71 + x_72 + x_73
   + x_74 + x_75 >= 0
 R48: x_0 + x_1 + x_2 + x_3 + x_4 + x_5 + x_6 + x_7 + x_9 + x_10 + x_11
   + x_12 + x_13 + x_14 + x_15 + x_16 + x_17 + x_18 + x_19 + x_20 + x_21
   + x_31 + x_43 + x_44 + x_45 + x_46 - y_47 + x_48 + x_49 + x_50 + x_51
   + x_52 + x_53 + x_54 + x_58 + x_59 + x_60 + x_61 + x_62 + x_63 + x_64
   + x_65 + x_66 + x_67 + x_69 + x_70 + x_71 + x_72 + x_73 + x_74 + x_75
   >= 0
 R49: x_16 + x_19 + x_20 + x_21 + x_31 + x_46 + x_47 - y_48 + x_49 + x_50
   + x_51 + x_59 + x_60 + x_61 + x_62 + x_63 + x_64 + x_65 + x_66 + x_67
   + x_68 + x_69 + x_70 + x_71 + x_72 + x_73 + x_74 >= 0
 R50: x_0 + x_1 + x_2 + x_3 + x_4 + x_5 + x_6 + x_7 + x_9 + x_10 + x_11
   + x_12 + x_13 + x_14 + x_15 + x_16 + x_17 + x_18 + x_19 + x_20 + x_21
   + x_22 + x_23 + x_31 + x_39 + x_41 + x_42 + x_43 + x_44 + x_45 + x_46
   + x_47 + x_48 - y_49 + x_50 + x_51 + x_52 + x_53 + x_54 + x_59 + x_60
   + x_65 + x_66 + x_67 + x_69 + x_70 + x_71 + x_72 + x_73 + x_74 + x_75
   >= 0
 R51: x_0 + x_1 + x_2 + x_3 + x_4 + x_5 + x_6 + x_7 + x_9 + x_10 + x_11
   + x_12 + x_13 + x_14 + x_15 + x_16 + x_17 + x_18 + x_19 + x_20 + x_21
   + x_22 + x_23 + x_24 + x_31 + x_37 + x_41 + x_42 + x_43 + x_44 + x_45
   + x_46 + x_47 + x_48 + x_49 - y_50 + x_51 + x_52 + x_53 + x_54 + x_55
   + x_58 + x_59 + x_60 + x_61 + x_62 + x_65 + x_66 + x_67 + x_69 + x_70
   + x_71 + x_72 + x_73 + x_74 + x_75 >= 0
 R52: x_0 + x_1 + x_3 + x_4 + x_9 + x_10 + x_12 + x_13 + x_14 + x_15 + x_16
   + x_17 + x_18 + x_19 + x_20 + x_21 + x_31 + x_41 + x_42 + x_43 + x_44
   + x_45 + x_47 + x_48 + x_49 + x_50 - y_51 + x_67 + x_69 + x_71 + x_72
   + x_73 + x_74 + x_75 >= 0
 R53: x_0 + x_1 + x_2 + x_3 + x_4 + x_5 + x_6 + x_7 + x_9 + x_10 + x_11
   + x_12 + x_13 + x_14 + x_15 + x_16 + x_17 + x_18 + x_19 + x_20 + x_21
   + x_22 + x_23 + x_24 + x_27 + x_28 + x_30 + x_32 + x_33 + x_34 + x_35
   + x_36 + x_37 + x_38 + x_41 + x_42 + x_43 + x_44 + x_45 + x_46 + x_47
   + x_49 + x_50 - y_52 + x_53 + x_54 + x_55 + x_56 + x_57 + x_65 + x_66
   + x_67 + x_69 + x_71 + x_72 + x_73 + x_75 >= 0
 R54: x_0 + x_1 + x_2 + x_3 + x_4 + x_5 + x_6 + x_7 + x_9 + x_10 + x_11
   + x_12 + x_13 + x_14 + x_15 + x_16 + x_17 + x_18 + x_19 + x_20 + x_21
   + x_22 + x_23 + x_24 + x_28 + x_30 + x_32 + x_33 + x_34 + x_35 + x_36
   + x_37 + x_38 + x_41 + x_42 + x_43 + x_44 + x_45 + x_46 + x_47 + x_49
   + x_50 + x_52 - y_53 + x_54 + x_55 + x_56 + x_57 + x_58 + x_65 + x_66
   + x_67 + x_69 + x_70 + x_71 + x_72 + x_73 + x_75 >= 0
 R55: x_0 + x_1 + x_2 + x_3 + x_4 + x_5 + x_6 + x_7 + x_9 + x_10 + x_11
   + x_12 + x_13 + x_14 + x_15 + x_16 + x_17 + x_18 + x_19 + x_20 + x_21
   + x_22 + x_23 + x_24 + x_28 + x_30 + x_32 + x_33 + x_34 + x_35 + x_36
   + x_37 + x_38 + x_45 + x_46 + x_47 + x_49 + x_50 + x_52 + x_53 - y_54
   + x_55 + x_56 + x_57 + x_58 + x_65 + x_66 + x_67 + x_69 + x_70 + x_71
   + x_72 + x_73 + x_75 >= 0
 R56: x_3 + x_4 + x_5 + x_6 + x_7 + x_9 + x_10 + x_11 + x_12 + x_13 + x_14
   + x_15 + x_16 + x_17 + x_19 + x_20 + x_21 + x_22 + x_23 + x_24 + x_30
   + x_34 + x_35 + x_36 + x_37 + x_38 + x_46 + x_50 + x_52 + x_53 + x_54
   - y_55 + x_56 + x_57 + x_58 + x_59 + x_60 + x_61 + x_62 + x_64 + x_65
   + x_66 + x_67 + x_69 + x_70 + x_71 + x_72 + x_73 + x_75 >= 0
 R57: x_6 + x_7 + x_9 + x_10 + x_11 + x_22 + x_23 + x_28 + x_29 + x_30
   + x_34 + x_35 + x_36 + x_37 + x_38 + x_46 + x_52 + x_53 + x_54 + x_55
   - y_56 + x_57 + x_58 + x_60 + x_65 + x_66 + x_67 + x_69 + x_75 >= 0
 R58: x_30 + x_35 + x_36 + x_37 + x_38 + x_46 + x_52 + x_53 + x_54 + x_55
   + x_56 - y_57 + x_58 + x_59 + x_60 + x_61 + x_64 + x_65 + x_66 + x_69
   + x_70 + x_71 + x_75 >= 0
 R59: x_16 + x_31 + x_46 + x_47 + x_50 + x_53 + x_54 + x_55 + x_56 + x_57
   - y_58 + x_59 + x_60 + x_61 + x_62 + x_63 + x_64 + x_65 + x_66 + x_67
   + x_69 + x_70 + x_71 + x_72 + x_73 + x_75 >= 0
 R60: x_15 + x_16 + x_17 + x_20 + x_21 + x_31 + x_46 + x_47 + x_48 + x_49
   + x_50 + x_55 + x_57 + x_58 - y_59 + x_60 + x_61 + x_62 + x_63 + x_64
   + x_65 + x_66 + x_67 + x_68 + x_69 + x_70 + x_71 + x_72 + x_73 + x_74
   + x_75 >= 0
 R61: x_16 + x_31 + x_46 + x_47 + x_48 + x_49 + x_50 + x_55 + x_56 + x_57
   + x_58 + x_59 - y_60 + x_61 + x_62 + x_63 + x_64 + x_65 + x_66 + x_67
   + x_68 + x_69 + x_70 + x_71 + x_72 + x_73 + x_74 + x_75 >= 0
 R62: x_16 + x_31 + x_46 + x_47 + x_48 + x_50 + x_55 + x_57 + x_58 + x_59
   + x_60 - y_61 + x_62 + x_63 + x_64 + x_65 + x_66 + x_67 + x_68 + x_69
   + x_70 + x_71 + x_72 + x_73 + x_74 >= 0
 R63: x_31 + x_46 + x_47 + x_48 + x_50 + x_55 + x_58 + x_59 + x_60 + x_61
   - y_62 + x_63 + x_64 + x_65 + x_66 + x_67 + x_68 + x_69 + x_70 + x_71
   + x_72 + x_73 + x_74 >= 0
 R64: x_31 + x_46 + x_47 + x_48 + x_58 + x_59 + x_60 + x_61 + x_62 - y_63
   + x_64 + x_65 + x_66 + x_67 + x_68 + x_69 + x_70 + x_71 + x_72 + x_73
   + x_74 >= 0
 R65: x_31 + x_46 + x_47 + x_48 + x_55 + x_57 + x_58 + x_59 + x_60 + x_61
   + x_62 + x_63 - y_64 + x_65 + x_66 + x_67 + x_68 + x_69 + x_70 + x_71
   + x_72 + x_73 + x_74 >= 0
 R66: x_0 + x_1 + x_2 + x_3 + x_4 + x_5 + x_6 + x_7 + x_9 + x_10 + x_11
   + x_12 + x_13 + x_14 + x_15 + x_16 + x_17 + x_18 + x_19 + x_20 + x_21
   + x_22 + x_23 + x_31 + x_46 + x_47 + x_48 + x_49 + x_50 + x_52 + x_53
   + x_54 + x_55 + x_56 + x_57 + x_58 + x_59 + x_60 + x_61 + x_62 + x_63
   + x_64 - y_65 + x_66 + x_67 + x_69 + x_70 + x_71 + x_72 + x_73 + x_74
   + x_75 >= 0
 R67: x_1 + x_3 + x_4 + x_5 + x_6 + x_7 + x_9 + x_10 + x_11 + x_12 + x_13
   + x_14 + x_15 + x_16 + x_17 + x_18 + x_19 + x_20 + x_21 + x_31 + x_46
   + x_47 + x_48 + x_49 + x_50 + x_52 + x_53 + x_54 + x_55 + x_56 + x_57
   + x_58 + x_59 + x_60 + x_61 + x_62 + x_63 + x_64 + x_65 - y_66 + x_67
   + x_69 + x_70 + x_71 + x_72 + x_73 + x_74 + x_75 >= 0
 R68: x_0 + x_1 + x_2 + x_3 + x_4 + x_5 + x_6 + x_7 + x_9 + x_10 + x_11
   + x_12 + x_13 + x_14 + x_15 + x_16 + x_17 + x_18 + x_19 + x_20 + x_21
   + x_22 + x_23 + x_24 + x_31 + x_37 + x_41 + x_42 + x_43 + x_44 + x_45
   + x_46 + x_47 + x_48 + x_49 + x_50 + x_51 + x_52 + x_53 + x_54 + x_55
   + x_56 + x_58 + x_59 + x_60 + x_61 + x_62 + x_63 + x_64 + x_65 + x_66
   - y_67 + x_69 + x_70 + x_71 + x_72 + x_73 + x_74 + x_75 >= 0
 R69: x_31 + x_48 + x_59 + x_60 + x_61 + x_62 + x_63 + x_64 - y_68 + x_74
   >= 0
 R70: x_0 + x_1 + x_2 + x_3 + x_4 + x_5 + x_6 + x_7 + x_9 + x_10 + x_11
   + x_12 + x_13 + x_14 + x_15 + x_16 + x_17 + x_18 + x_19 + x_20 + x_21
   + x_22 + x_31 + x_46 + x_47 + x_48 + x_49 + x_50 + x_51 + x_52 + x_53
   + x_54 + x_55 + x_56 + x_57 + x_58 + x_59 + x_60 + x_61 + x_62 + x_63
   + x_64 + x_65 + x_66 + x_67 - y_69 + x_70 + x_71 + x_72 + x_73 + x_74
   + x_75 >= 0
 R71: x_9 + x_10 + x_11 + x_12 + x_13 + x_14 + x_15 + x_16 + x_17 + x_18
   + x_19 + x_20 + x_21 + x_31 + x_46 + x_47 + x_48 + x_49 + x_50 + x_53
   + x_54 + x_55 + x_57 + x_58 + x_59 + x_60 + x_61 + x_62 + x_63 + x_64
   + x_65 + x_66 + x_67 + x_69 - y_70 + x_71 + x_72 + x_73 + x_74 + x_75
   >= 0
 R72: x_3 + x_4 + x_6 + x_7 + x_9 + x_10 + x_11 + x_12 + x_13 + x_14 + x_15
   + x_16 + x_17 + x_18 + x_19 + x_20 + x_21 + x_31 + x_46 + x_47 + x_48
   + x_49 + x_50 + x_51 + x_52 + x_53 + x_54 + x_55 + x_57 + x_58 + x_59
   + x_60 + x_61 + x_62 + x_63 + x_64 + x_65 + x_66 + x_67 + x_69 + x_70
   - y_71 + x_72 + x_73 + x_74 + x_75 >= 0
 R73: x_0 + x_1 + x_2 + x_3 + x_4 + x_5 + x_6 + x_7 + x_9 + x_10 + x_11
   + x_12 + x_13 + x_14 + x_15 + x_16 + x_17 + x_18 + x_19 + x_20 + x_21
   + x_31 + x_45 + x_46 + x_47 + x_48 + x_49 + x_50 + x_51 + x_52 + x_53
   + x_54 + x_55 + x_58 + x_59 + x_60 + x_61 + x_62 + x_63 + x_64 + x_65
   + x_66 + x_67 + x_69 + x_70 + x_71 - y_72 + x_73 + x_74 + x_75 >= 0
 R74: x_0 + x_1 + x_2 + x_3 + x_4 + x_5 + x_6 + x_7 + x_9 + x_10 + x_11
   + x_12 + x_13 + x_14 + x_15 + x_16 + x_17 + x_18 + x_19 + x_20 + x_21
   + x_31 + x_46 + x_47 + x_48 + x_49 + x_50 + x_51 + x_52 + x_53 + x_54
   + x_55 + x_58 + x_59 + x_60 + x_61 + x_62 + x_63 + x_64 + x_65 + x_66
   + x_67 + x_69 + x_70 + x_71 + x_72 - y_73 + x_74 + x_75 >= 0
 R75: x_16 + x_17 + x_19 + x_20 + x_21 + x_31 + x_46 + x_47 + x_48 + x_49
   + x_50 + x_51 + x_59 + x_60 + x_61 + x_62 + x_63 + x_64 + x_65 + x_66
   + x_67 + x_68 + x_69 + x_70 + x_71 + x_72 + x_73 - y_74 >= 0
 R76: x_0 + x_1 + x_2 + x_3 + x_4 + x_5 + x_6 + x_7 + x_9 + x_10 + x_11
   + x_12 + x_13 + x_14 + x_15 + x_16 + x_17 + x_18 + x_19 + x_20 + x_21
   + x_22 + x_23 + x_24 + x_31 + x_37 + x_41 + x_42 + x_43 + x_44 + x_45
   + x_46 + x_47 + x_49 + x_50 + x_51 + x_52 + x_53 + x_54 + x_55 + x_56
   + x_57 + x_58 + x_59 + x_60 + x_65 + x_66 + x_67 + x_69 + x_70 + x_71
   + x_72 + x_73 - y_75 >= 0
Bounds
Binaries
 x_0 y_0 x_1 y_1 x_2 y_2 x_3 y_3 x_4 y_4 x_5 y_5 x_6 y_6 x_7 y_7 x_8 y_8
 x_9 y_9 x_10 y_10 x_11 y_11 x_12 y_12 x_13 y_13 x_14 y_14 x_15 y_15 x_16
 y_16 x_17 y_17 x_18 y_18 x_19 y_19 x_20 y_20 x_21 y_21 x_22 y_22 x_23 y_23
 x_24 y_24 x_25 y_25 x_26 y_26 x_27 y_27 x_28 y_28 x_29 y_29 x_30 y_30 x_31
 y_31 x_32 y_32 x_33 y_33 x_34 y_34 x_35 y_35 x_36 y_36 x_37 y_37 x_38 y_38
 x_39 y_39 x_40 y_40 x_41 y_41 x_42 y_42 x_43 y_43 x_44 y_44 x_45 y_45 x_46
 y_46 x_47 y_47 x_48 y_48 x_49 y_49 x_50 y_50 x_51 y_51 x_52 y_52 x_53 y_53
 x_54 y_54 x_55 y_55 x_56 y_56 x_57 y_57 x_58 y_58 x_59 y_59 x_60 y_60 x_61
 y_61 x_62 y_62 x_63 y_63 x_64 y_64 x_65 y_65 x_66 y_66 x_67 y_67 x_68 y_68
 x_69 y_69 x_70 y_70 x_71 y_71 x_72 y_72 x_73 y_73 x_74 y_74 x_75 y_75
End
