max-covering-SJC.sol
# Objective value = 76
x_0 0
y_0 1
x_1 0
y_1 1
x_2 1
y_2 1
x_3 0
y_3 1
x_4 0
y_4 1
x_5 0
y_5 1
x_6 0
y_6 1
x_7 0
y_7 1
x_8 0
y_8 1
x_9 0
y_9 1
x_10 0
y_10 1
x_11 0
y_11 1
x_12 0
y_12 1
x_13 0
y_13 1
x_14 0
y_14 1
x_15 0
y_15 1
x_16 0
y_16 1
x_17 0
y_17 1
x_18 0
y_18 1
x_19 0
y_19 1
x_20 0
y_20 1
x_21 0
y_21 1
x_22 0
y_22 1
x_23 0
y_23 1
x_24 0
y_24 1
x_25 0
y_25 1
x_26 0
y_26 1
x_27 0
y_27 1
x_28 0
y_28 1
x_29 0
y_29 1
x_30 0
y_30 1
x_31 0
y_31 1
x_32 0
y_32 1
x_33 0
y_33 1
x_34 1
y_34 1
x_35 0
y_35 1
x_36 0
y_36 1
x_37 0
y_37 1
x_38 0
y_38 1
x_39 0
y_39 1
x_40 0
y_40 1
x_41 0
y_41 1
x_42 0
y_42 1
x_43 0
y_43 1
x_44 0
y_44 1
x_45 0
y_45 1
x_46 0
y_46 1
x_47 0
y_47 1
x_48 0
y_48 1
x_49 0
y_49 1
x_50 0
y_50 1
x_51 0
y_51 1
x_52 0
y_52 1
x_53 0
y_53 1
x_54 0
y_54 1
x_55 0
y_55 1
x_56 0
y_56 1
x_57 0
y_57 1
x_58 0
y_58 1
x_59 0
y_59 1
x_60 0
y_60 1
x_61 1
y_61 1
x_62 0
y_62 1
x_63 0
y_63 1
x_64 0
y_64 1
x_65 0
y_65 1
x_66 0
y_66 1
x_67 0
y_67 1
x_68 0
y_68 1
x_69 0
y_69 1
x_70 0
y_70 1
x_71 0
y_71 1
x_72 0
y_72 1
x_73 1
y_73 1
x_74 0
y_74 1
x_75 0
y_75 1
